Maximize
 0
Subject To
 epc_0!1: -46.0192427522125 y_1!1_2!1 +71.65983504326928 y_1!2_2!1 -33.60537427615979 y_1!3_2!1 +87.55532991134282 y_1!1_2!2 -33.432505157739726 y_1!2_2!2 +42.54199820265572 y_1!3_2!2 +96.35197830362344 y_1!1_2!3 -22.198578171151453 y_1!2_2!3 -80.76613863394905 y_1!3_2!3 + lambda_0!1 - mu_0 = 0
 epc_0!2: +1.1138979217147522 y_1!1_2!1 -5.361040136528587 y_1!2_2!1 -21.385923344045764 y_1!3_2!1 -85.16040424698346 y_1!1_2!2 -70.95689538602939 y_1!2_2!2 +20.850230137320324 y_1!3_2!2 +64.2545330561286 y_1!1_2!3 +68.29660705263151 y_1!2_2!3 +44.19357741036197 y_1!3_2!3 + lambda_0!2 - mu_0 = 0
 epc_0!3: +32.39931487768095 y_1!1_2!1 -6.632613668142568 y_1!2_2!1 -86.8224791811408 y_1!3_2!1 -1.141558131118117 y_1!1_2!2 -35.11948661850175 y_1!2_2!2 -2.123723646714055 y_1!3_2!2 +88.32492716938484 y_1!1_2!3 -55.26978491393122 y_1!2_2!3 -29.59586890162889 y_1!3_2!3 + lambda_0!3 - mu_0 = 0
 dc_0: x_0!1 + x_0!2 + x_0!3 = 1
 bc_0!1: lambda_0!1 +290.4373245778445 x_0!1 <= 290.4373245778445
 bc_0!2: lambda_0!2 +290.4373245778445 x_0!2 <= 290.4373245778445
 bc_0!3: lambda_0!3 +290.4373245778445 x_0!3 <= 290.4373245778445
 sum_0!1: y_1!1_2!1 - x_1!1 - x_2!1 >= -1
 idk_0!1!1: y_1!1_2!1 - x_1!1 <= 0
 idk_0!1!2: y_1!1_2!1 - x_2!1 <= 0
 sum_0!2: y_1!2_2!1 - x_1!2 - x_2!1 >= -1
 idk_0!2!1: y_1!2_2!1 - x_1!2 <= 0
 idk_0!2!2: y_1!2_2!1 - x_2!1 <= 0
 sum_0!3: y_1!3_2!1 - x_1!3 - x_2!1 >= -1
 idk_0!3!1: y_1!3_2!1 - x_1!3 <= 0
 idk_0!3!2: y_1!3_2!1 - x_2!1 <= 0
 sum_0!4: y_1!1_2!2 - x_1!1 - x_2!2 >= -1
 idk_0!4!1: y_1!1_2!2 - x_1!1 <= 0
 idk_0!4!2: y_1!1_2!2 - x_2!2 <= 0
 sum_0!5: y_1!2_2!2 - x_1!2 - x_2!2 >= -1
 idk_0!5!1: y_1!2_2!2 - x_1!2 <= 0
 idk_0!5!2: y_1!2_2!2 - x_2!2 <= 0
 sum_0!6: y_1!3_2!2 - x_1!3 - x_2!2 >= -1
 idk_0!6!1: y_1!3_2!2 - x_1!3 <= 0
 idk_0!6!2: y_1!3_2!2 - x_2!2 <= 0
 sum_0!7: y_1!1_2!3 - x_1!1 - x_2!3 >= -1
 idk_0!7!1: y_1!1_2!3 - x_1!1 <= 0
 idk_0!7!2: y_1!1_2!3 - x_2!3 <= 0
 sum_0!8: y_1!2_2!3 - x_1!2 - x_2!3 >= -1
 idk_0!8!1: y_1!2_2!3 - x_1!2 <= 0
 idk_0!8!2: y_1!2_2!3 - x_2!3 <= 0
 sum_0!9: y_1!3_2!3 - x_1!3 - x_2!3 >= -1
 idk_0!9!1: y_1!3_2!3 - x_1!3 <= 0
 idk_0!9!2: y_1!3_2!3 - x_2!3 <= 0
 epc_1!1: -53.8442212384584 y_0!1_2!1 -38.14623593709652 y_0!2_2!1 +22.266126884211502 y_0!3_2!1 -26.907777670730184 y_0!1_2!2 -22.538590407897942 y_0!2_2!2 +50.88838161230581 y_0!3_2!2 +76.24562489146027 y_0!1_2!3 -96.8822471236053 y_0!2_2!3 -40.23232835951891 y_0!3_2!3 + lambda_1!1 - mu_1 = 0
 epc_1!2: +89.23765063653403 y_0!1_2!1 -40.69880713008711 y_0!2_2!1 +6.270680725348399 y_0!3_2!1 +25.33658952584929 y_0!1_2!2 -79.50768331060732 y_0!2_2!2 +11.134724545886002 y_0!3_2!2 +38.592048091651066 y_0!1_2!3 -57.99207364207746 y_0!2_2!3 -96.67011432536286 y_0!3_2!3 + lambda_1!2 - mu_1 = 0
 epc_1!3: +32.43183369233407 y_0!1_2!1 +40.08454102950546 y_0!2_2!1 -55.27647356923448 y_0!3_2!1 -68.7296711063378 y_0!1_2!2 -10.199878464605732 y_0!2_2!2 +75.81211104392779 y_0!3_2!2 +93.55507745423918 y_0!1_2!3 +69.67511146972888 y_0!2_2!3 +51.85354804883994 y_0!3_2!3 + lambda_1!3 - mu_1 = 0
 dc_1: x_1!1 + x_1!2 + x_1!3 = 1
 bc_1!1: lambda_1!1 +290.4373245778445 x_1!1 <= 290.4373245778445
 bc_1!2: lambda_1!2 +290.4373245778445 x_1!2 <= 290.4373245778445
 bc_1!3: lambda_1!3 +290.4373245778445 x_1!3 <= 290.4373245778445
 sum_1!1: y_0!1_2!1 - x_0!1 - x_2!1 >= -1
 idk_1!1!0: y_0!1_2!1 - x_0!1 <= 0
 idk_1!1!2: y_0!1_2!1 - x_2!1 <= 0
 sum_1!2: y_0!2_2!1 - x_0!2 - x_2!1 >= -1
 idk_1!2!0: y_0!2_2!1 - x_0!2 <= 0
 idk_1!2!2: y_0!2_2!1 - x_2!1 <= 0
 sum_1!3: y_0!3_2!1 - x_0!3 - x_2!1 >= -1
 idk_1!3!0: y_0!3_2!1 - x_0!3 <= 0
 idk_1!3!2: y_0!3_2!1 - x_2!1 <= 0
 sum_1!4: y_0!1_2!2 - x_0!1 - x_2!2 >= -1
 idk_1!4!0: y_0!1_2!2 - x_0!1 <= 0
 idk_1!4!2: y_0!1_2!2 - x_2!2 <= 0
 sum_1!5: y_0!2_2!2 - x_0!2 - x_2!2 >= -1
 idk_1!5!0: y_0!2_2!2 - x_0!2 <= 0
 idk_1!5!2: y_0!2_2!2 - x_2!2 <= 0
 sum_1!6: y_0!3_2!2 - x_0!3 - x_2!2 >= -1
 idk_1!6!0: y_0!3_2!2 - x_0!3 <= 0
 idk_1!6!2: y_0!3_2!2 - x_2!2 <= 0
 sum_1!7: y_0!1_2!3 - x_0!1 - x_2!3 >= -1
 idk_1!7!0: y_0!1_2!3 - x_0!1 <= 0
 idk_1!7!2: y_0!1_2!3 - x_2!3 <= 0
 sum_1!8: y_0!2_2!3 - x_0!2 - x_2!3 >= -1
 idk_1!8!0: y_0!2_2!3 - x_0!2 <= 0
 idk_1!8!2: y_0!2_2!3 - x_2!3 <= 0
 sum_1!9: y_0!3_2!3 - x_0!3 - x_2!3 >= -1
 idk_1!9!0: y_0!3_2!3 - x_0!3 <= 0
 idk_1!9!2: y_0!3_2!3 - x_2!3 <= 0
 epc_2!1: +29.05429607301545 y_0!1_1!1 -57.34651295097988 y_0!2_1!1 -59.069696599836455 y_0!3_1!1 -3.0716361546943034 y_0!1_1!2 -14.866750089742226 y_0!2_1!2 -60.481142951911735 y_0!3_1!2 +67.51050694114338 y_0!1_1!3 -99.07172305603231 y_0!2_1!3 -86.2995172761152 y_0!3_1!3 + lambda_2!1 - mu_2 = 0
 epc_2!2: -78.13481419459865 y_0!1_1!1 +56.092066029036545 y_0!2_1!1 +12.781009461086427 y_0!3_1!1 -30.24601655886616 y_0!1_1!2 +20.233689776327736 y_0!2_1!2 +75.77391762478939 y_0!3_1!2 -22.458488441376772 y_0!1_1!3 -76.04314648795653 y_0!2_1!3 -23.313783845572587 y_0!3_1!3 + lambda_2!2 - mu_2 = 0
 epc_2!3: -48.06880482562532 y_0!1_1!1 -8.206272337818717 y_0!2_1!1 -59.3114261347903 y_0!3_1!1 +87.74107136666402 y_0!1_1!2 +15.603314258843596 y_0!2_1!2 +83.36136411834488 y_0!3_1!2 +17.078887494405052 y_0!1_1!3 -72.92943500915261 y_0!2_1!3 +48.065778601539364 y_0!3_1!3 + lambda_2!3 - mu_2 = 0
 dc_2: x_2!1 + x_2!2 + x_2!3 = 1
 bc_2!1: lambda_2!1 +290.4373245778445 x_2!1 <= 290.4373245778445
 bc_2!2: lambda_2!2 +290.4373245778445 x_2!2 <= 290.4373245778445
 bc_2!3: lambda_2!3 +290.4373245778445 x_2!3 <= 290.4373245778445
 sum_2!1: y_0!1_1!1 - x_0!1 - x_1!1 >= -1
 idk_2!1!0: y_0!1_1!1 - x_0!1 <= 0
 idk_2!1!1: y_0!1_1!1 - x_1!1 <= 0
 sum_2!2: y_0!2_1!1 - x_0!2 - x_1!1 >= -1
 idk_2!2!0: y_0!2_1!1 - x_0!2 <= 0
 idk_2!2!1: y_0!2_1!1 - x_1!1 <= 0
 sum_2!3: y_0!3_1!1 - x_0!3 - x_1!1 >= -1
 idk_2!3!0: y_0!3_1!1 - x_0!3 <= 0
 idk_2!3!1: y_0!3_1!1 - x_1!1 <= 0
 sum_2!4: y_0!1_1!2 - x_0!1 - x_1!2 >= -1
 idk_2!4!0: y_0!1_1!2 - x_0!1 <= 0
 idk_2!4!1: y_0!1_1!2 - x_1!2 <= 0
 sum_2!5: y_0!2_1!2 - x_0!2 - x_1!2 >= -1
 idk_2!5!0: y_0!2_1!2 - x_0!2 <= 0
 idk_2!5!1: y_0!2_1!2 - x_1!2 <= 0
 sum_2!6: y_0!3_1!2 - x_0!3 - x_1!2 >= -1
 idk_2!6!0: y_0!3_1!2 - x_0!3 <= 0
 idk_2!6!1: y_0!3_1!2 - x_1!2 <= 0
 sum_2!7: y_0!1_1!3 - x_0!1 - x_1!3 >= -1
 idk_2!7!0: y_0!1_1!3 - x_0!1 <= 0
 idk_2!7!1: y_0!1_1!3 - x_1!3 <= 0
 sum_2!8: y_0!2_1!3 - x_0!2 - x_1!3 >= -1
 idk_2!8!0: y_0!2_1!3 - x_0!2 <= 0
 idk_2!8!1: y_0!2_1!3 - x_1!3 <= 0
 sum_2!9: y_0!3_1!3 - x_0!3 - x_1!3 >= -1
 idk_2!9!0: y_0!3_1!3 - x_0!3 <= 0
 idk_2!9!1: y_0!3_1!3 - x_1!3 <= 0
Bounds
 mu_0 free
 mu_1 free
 mu_2 free
Binary
 x_0!1 x_0!2 x_0!3 x_1!1 x_1!2 x_1!3 x_2!1 x_2!2 x_2!3
End
